CMD:
./solvers/bin/cadical --plain --no-reduce -t 1600 ./data/cnfs//visprodcellp01/visprodcellp01.11.cnf

c --- [ banner ] -------------------------------------------------------------
c 
c CaDiCaL SAT Solver
c Copyright (c) 2016-2024
c A. Biere, M. Fleury, N. Froleyks, K. Fazekas, F. Pollitt, T. Faller
c JKU Linz, University of Freiburg, TU Wien
c 
c Version 2.1.3 5296d3d2a9bf48c154ab2acb5e44625776d821bf
c g++ (Gentoo 12.3.1_p20230526 p2) 12.3.1 20230526 -Wall -Wextra -O3 -DNDEBUG
c Sat Aug 9 07:26:21 PDT 2025 Linux cedar2.int.cedar.computecanada.ca 5.14.0-362.24.2.el9_3.x86_64 x86_64
c 
c --- [ limit ] --------------------------------------------------------------
c 
c setting time limit to 1600 seconds real time (due to '-t 1600')
c 
c --- [ parsing input ] ------------------------------------------------------
c 
c reading DIMACS file from './data/cnfs//visprodcellp01/visprodcellp01.11.cnf'
c opening file to read './data/cnfs//visprodcellp01/visprodcellp01.11.cnf'
c found 'p cnf 34122 101094' header
c parsed 101094 clauses in 0.02 seconds process time
c 
c --- [ options ] ------------------------------------------------------------
c 
c   --compact=false                (different from default 'true')
c   --decompose=false              (different from default 'true')
c   --deduplicate=false            (different from default 'true')
c   --elim=false                   (different from default 'true')
c   --probe=false                  (different from default 'true')
c   --reduce=false                 (different from default 'true')
c   --subsume=false                (different from default 'true')
c   --ternary=false                (different from default 'true')
c   --transred=false               (different from default 'true')
c   --vivify=false                 (different from default 'true')
c 
c --- [ solving ] ------------------------------------------------------------
c 
c time measured in process time since initialization
c 
c  seconds  reductions  redundant  irredundant
c         MB    restarts       trail      variables
c          level   conflicts       glue        remaining
c 
c *  0.02 18  0 0   0    0    0  0% 0 82576 21791 64%
c {  0.02 18  0 0   0    0    0  0% 0 82576 21791 64%
c i  0.02 18  1 0   0    1    0 37% 0 82576 21785 64%
c i  0.02 18 70 0   0   18   14 42% 1 82576 21778 64%
c i  0.02 18 75 0   0   43   36 43% 2 82576 21774 64%
c i  0.02 18 63 0   7   69   59 42% 2 82576 21772 64%
c i  0.02 18 61 0   7   71   59 42% 2 82576 21549 63%
c i  0.02 18 60 0   7   72   59 42% 2 82576 21548 63%
c i  0.02 18 59 0   7   73   59 42% 2 82576 21536 63%
c i  0.02 18 71 0   8  123  102 46% 2 82576 21530 63%
c i  0.02 18 67 0  12  145  122 46% 2 82576 21362 63%
c i  0.03 18 69 0  12  186  160 48% 2 82576 21353 63%
c i  0.03 18 63 0  12  257  225 51% 2 82576 21086 62%
c i  0.03 18 62 0  12  270  236 51% 2 82576 21076 62%
c }  0.03 18 61 0  12  289  245 51% 2 82576 20678 61%
c 0  0.03 18 61 0  12  289  245 51% 2 82576 20678 61%
c 
c --- [ result ] -------------------------------------------------------------
c 
s UNSATISFIABLE
c 
c --- [ run-time profiling ] -------------------------------------------------
c 
c process time taken by individual solving procedures
c (percentage relative to process time for solving)
c 
c         0.02  154.23% parse
c         0.01   99.34% search
c         0.01   71.36% unstable
c         0.00   27.84% lucky
c         0.00    0.00% simplify
c   =================================
c         0.01   38.76% solve
c 
c last line shows process time for solving
c (percentage relative to total process time)
c 
c --- [ statistics ] ---------------------------------------------------------
c 
c chronological:               154        53.29 %  of conflicts
c conflicts:                   289     27223.06    per second
c decisions:                  1729    162867.37    per second
c fixed:                     13444        39.40 %  of all variables
c learned:                     273        94.46 %  per conflict
c learned_lits:               1419       100.00 %  learned literals
c minimized:                     0         0.00 %  learned literals
c shrunken:                    209        14.73 %  learned literals
c minishrunken:                 73         5.14 %  learned literals
c otfs:                          3         1.04 %  of conflict
c propagations:             114070        10.75 M  per second
c restarts:                     12        24.08    interval
c subsumed:                     14         0.02 %  of all clauses
c strengthened:                  3         0.00 %  of all clauses
c 
c seconds are measured in process time for solving
c 
c --- [ resources ] ----------------------------------------------------------
c 
c total process time since initialization:         0.03    seconds
c total real time since initialization:            0.03    seconds
c maximum resident set size of process:           30.11    MB
c 
c --- [ shutting down ] ------------------------------------------------------
c 
c exit 20
